
  12    4
  10   10   10   10

   0   0   0   0   0   4 2 3 4 5 
   9  10  10  10  10   3 8 7 6 
   1  10  10  10  10   2 7 6 
   6  10  10  10  10   2 7 6 
   5  10  10  10  10   2 7 6 
   9  10  10  10  10   2 11 9 
   2  10  10  10  10   2 11 9 
  10  10  10  10  10   2 11 9 
   6  10  10  10  10   1 10 
  10  10  10  10  10   1 12
   2  10  10  10  10   1 12
   0   0   0   0   0   0 
